NAME : mEgtspf.pid6469.gtsp.241591963.tour
COMMENT : Length = 241591963
COMMENT : Found by LKH [Keld Helsgaun] Wed Apr  2 14:43:19 2025
TYPE : TOUR
DIMENSION : 75
TOUR_SECTION
1
27
7
8
26
39
36
37
38
41
42
43
40
45
46
47
44
34
53
54
55
52
20
10
2
9
35
5
3
14
13
63
60
61
62
75
72
73
74
18
25
16
28
4
59
56
57
58
15
66
67
64
65
31
22
6
24
17
49
50
51
48
23
32
21
11
30
71
68
69
70
33
12
19
29
-1
EOF
